NAME          METAL
ROWS
 G  N
 G  P
 G  K
 G  S
 G  CA
 G  MG
 G  B
 G  ZN
 G  MN
 G  FE
 G  CU
 G  MO
 G  CO
 G  AS
 G  CD
 G  HG
 G  NI
 G  PB
 G  SE
 G  DEN
 E  WT
 N  COST
 N  PRICE
COLUMNS
*234567890123456789012345678901234567890123456789012345678901
    I184600   N             0.180000   P             0.460000   
    I184600   DEN           0.016043   WT            1.000000   
    I184600   COST        183.000000   PRICE       228.800000   
    I184600   SCALE      2000.000000   
    I115200   N             0.110000   P             0.520000   
    I115200   DEN           0.015426   WT            1.000000   
    I115200   COST        183.000000   PRICE       228.800000   
    I115200   SCALE      2000.000000   
    I004600   P             0.460000   DEN           0.014344   
    I004600   WT            1.000000   COST        143.000000   
    I004600   PRICE       178.800000   SCALE      2000.000000   
    I460000   N             0.460000   DEN           0.020889   
    I460000   WT            1.000000   COST        160.000000   
    I460000   PRICE       200.000000   SCALE      2000.000000   
    I210000   N             0.210000   S             0.240000   
    I210000   DEN           0.020463   WT            1.000000   
    I210000   COST        110.000000   PRICE       137.500000   
    I210000   SCALE      2000.000000   
    I000060   K             0.600000   DEN           0.015450   
    I000060   WT            1.000000   COST         90.000000   
    I000060   PRICE       112.500000   SCALE      2000.000000   
    I000022   K             0.220000   S             0.220000   
    I000022   MG            0.110000   DEN           0.010273   
    I000022   WT            1.000000   COST        110.000000   
    I000022   PRICE       137.500000   SCALE      2000.000000   
    BLUMIN20  P             0.001300   K             0.002100   
    BLUMIN20  S             0.104000   CA            0.007700   
    BLUMIN20  MG            0.001700   B             0.000048   
    BLUMIN20  ZN            0.203000   MN            0.001000   
    BLUMIN20  FE            0.061000   CU            0.000400   
    BLUMIN20  MO            0.000005   CO            0.000633   
    BLUMIN20  AS            0.000024   CD            0.000020   
    BLUMIN20  HG            0.000003   NI            0.000046   
    BLUMIN20  PB            0.000935   SE            0.000002   
    BLUMIN20  DEN           0.013368   WT            1.000000   
    BLUMIN20  COST          0.100000   PRICE         0.150000   
    BLUMIN20  SCALE         1.000000   
    BLUMIN18  P             0.001000   K             0.004900   
    BLUMIN18  S             0.095000   CA            0.030100   
    BLUMIN18  MG            0.008600   B             0.000476   
    BLUMIN18  ZN            0.184000   MN            0.007900   
    BLUMIN18  CU            0.001400   MO            0.000011   
    BLUMIN18  CO            0.000283   AS            0.000034   
    BLUMIN18  CD            0.000238   NI            0.000153   
    BLUMIN18  PB            0.013556   SE            0.000013   
    BLUMIN18  DEN           0.013368   WT            1.000000   
    BLUMIN18  COST          0.200000   PRICE         0.200000   
    BLUMIN18  SCALE         1.000000   
    BLUMIN10  ZN            0.110000   MN            0.000029   
    BLUMIN10  FE            0.000406   CU            0.001500   
    BLUMIN10  MO            0.000005   CO            0.000001   
    BLUMIN10  AS            0.000002   CD            0.000155   
    BLUMIN10  NI            0.000013   PB            0.000013   
    BLUMIN10  SE            0.000015   DEN           0.013368   
    BLUMIN10  WT            1.000000   COST          0.200000   
    BLUMIN10  PRICE         0.200000   SCALE         1.000000   
    I20S36Z   S             0.200000   ZN            0.360000   
    I20S36Z   DEN           0.013039   WT            1.000000   
    I20S36Z   COST        400.000000   PRICE       500.000000   
    I20S36Z   SCALE      2000.000000   
    I14B000   B             0.143000   DEN           0.021940   
    I14B000   WT            1.000000   COST        420.000000   
    I14B000   PRICE       525.000000   SCALE      2000.000000   
    I000000   DEN           0.011141   WT            1.000000   
    I000000   COST         28.000000   PRICE        35.000000   
    I000000   SCALE      2000.000000   
    LASSO     DEN           0.013536   WT            1.000000   
    LASSO     COST          5.625000   PRICE         6.625000   
    LASSO     SCALE         2.469000   
    SQUADRON  DEN           0.013404   WT            1.000000   
    SQUADRON  COST          5.000000   PRICE         5.887500   
    SQUADRON  SCALE         1.246700   
    PRODUCT   WT           -1.000000   COST          0.000000   
    PRODUCT   PRICE         0.000000   SCALE         1.000000   
*234567890123456789012345678901234567890123456789012345678901
RHS
RANGES
ENDATA
